--- Job PAMP Model1.gms Start 11/26/23 17:58:13 44.4.0 06604687 WEX-WEI x86 64bit/MS Windows
--- Applying:
    Q:\GAMS\44\gmsprmNT.txt
    C:\Users\redhawc\Documents\GAMS\gamsconfig.yaml
--- GAMS Parameters defined
    Input "C:\Users\redhawc\Desktop\EDI_BUSANA\mathematic\GAMS_CODE\PAMP\PAMP Model1.gms"
    PageSize 0
    ScrDir C:\Users\redhawc\Desktop\EDI_BUSANA\mathematic\GAMS_CODE\PAMP\225a\
    SysDir Q:\GAMS\44\
    LogOption 3
    ErrMsg 1
    ErrorLog 99
    IDE 1
    LstTitleLeftAligned 1
Licensee: Course License                                 S230704|0002AO-GEN
          University of Edinburgh, Business School                  DCE2899
          C:\Users\redhawc\Documents\GAMS\gamslice.txt
          License Admin: Douglas Alem, douglas.alem@ed.ac.uk               
          Course license for use within the course and related course work
Processor information: 1 socket(s), 8 core(s), and 16 thread(s) available
GAMS 44.4.0   Copyright (C) 1987-2023 GAMS Development. All rights reserved
--- Starting compilation
--- PAMP Model1.gms(468) 3 Mb
--- Starting execution: elapsed 0:00:00.010
--- PAMP Model1.gms(421) 4 Mb
--- Generating MIP model crop_profit_model
--- PAMP Model1.gms(465) 4 Mb
---   306 rows  892 columns  3,719 non-zeroes
---   99 discrete-columns
--- Range statistics (absolute non-zero finite values)
--- RHS       [min, max] : [ 1.400E+03, 9.536E+07] - Zero values observed as well
--- Bound     [min, max] : [ 1.000E+00, 1.000E+00] - Zero values observed as well
--- Matrix    [min, max] : [ 1.000E-06, 1.000E+09]
--- Executing CPLEX (Solvelink=2): elapsed 0:00:00.026

IBM ILOG CPLEX   44.4.0 06604687 Sep 19, 2023          WEI x86 64bit/MS Window

--- GAMS/CPLEX licensed for continuous and discrete problems.
--- GMO setup time: 0.00s
--- Space for names approximately 0.05 Mb
--- Use option 'names no' to turn use of names off
--- GMO memory 0.64 Mb (peak 0.65 Mb)
--- Dictionary memory 0.00 Mb
--- Cplex 22.1.1.0 link memory 0.02 Mb (peak 0.12 Mb)
--- Starting Cplex

Version identifier: 22.1.1.0 | 2022-11-27 | 9160aff4d
CPXPARAM_Advance                                 0
CPXPARAM_Threads                                 1
CPXPARAM_MIP_Display                             4
CPXPARAM_MIP_Pool_Capacity                       0
CPXPARAM_MIP_Tolerances_AbsMIPGap                0
Generic callback                                 0x50
Tried aggregator 2 times.
MIP Presolve eliminated 140 rows and 450 columns.
MIP Presolve modified 354 coefficients.
Aggregator did 9 substitutions.
Reduced MIP has 156 rows, 433 columns, and 963 nonzeros.
Reduced MIP has 90 binaries, 0 generals, 0 SOSs, and 0 indicators.
Presolve time = 0.00 sec. (1.74 ticks)
Found incumbent of value 6.0953903e+12 after 0.00 sec. (2.47 ticks)
Probing time = 0.00 sec. (0.04 ticks)
Tried aggregator 1 time.
Detecting symmetries...
MIP Presolve eliminated 22 rows and 22 columns.
Reduced MIP has 134 rows, 411 columns, and 919 nonzeros.
Reduced MIP has 79 binaries, 0 generals, 0 SOSs, and 0 indicators.
Presolve time = 0.00 sec. (0.53 ticks)
Probing time = 0.00 sec. (0.04 ticks)
MIP emphasis: balance optimality and feasibility.
MIP search method: dynamic search.
Parallel mode: none, using 1 thread.
Tried aggregator 1 time.
LP Presolve eliminated 19 rows and 90 columns.
Aggregator did 7 substitutions.
Reduced LP has 108 rows, 314 columns, and 745 nonzeros.
Presolve time = 0.00 sec. (0.27 ticks)
Initializing dual steep norms . . .

Iteration log . . .
Iteration:     1   Scaled dual infeas =       2827804.653299
Iteration:    62   Scaled dual infeas =        323675.323746
Markowitz threshold set to 0.1
Iteration:    74   Scaled dual infeas =         89661.424768
Iteration:    76   Scaled dual infeas =         39109.495635
Iteration:    78   Dual objective     = 77519877811111.984375
Iteration:   115   Dual objective     = 56057471864556.828125
Initializing dual steep norms . . .
Root relaxation solution time = 0.00 sec. (0.73 ticks)

        Nodes                                         Cuts/
   Node  Left     Objective  IInf  Best Integer    Best Bound    ItCnt     Gap

*     0+    0                       4.73633e+13   8.41185e+13            77.60%
Found incumbent of value 4.7363319e+13 after 0.01 sec. (16.05 ticks)
      0     0        cutoff         4.73633e+13                    130     --- 

Root node processing (before b&c):
  Real time             =    0.01 sec. (16.07 ticks)
Sequential b&c:
  Real time             =    0.00 sec. (0.00 ticks)
                          ------------
Total (root+branch&cut) =    0.01 sec. (16.07 ticks)

--- MIP status (101): integer optimal solution.
--- Cplex Time: 0.01sec (det. 16.07 ticks)

--- Returning a primal only solution to GAMS (marginals all set to NA).
--- Fixing integer variables and solving final LP...

Version identifier: 22.1.1.0 | 2022-11-27 | 9160aff4d
CPXPARAM_Advance                                 2
CPXPARAM_Threads                                 1
CPXPARAM_MIP_Display                             4
CPXPARAM_MIP_Pool_Capacity                       0
CPXPARAM_MIP_Tolerances_AbsMIPGap                0
Tried aggregator 1 time.
LP Presolve eliminated 220 rows and 600 columns.
Aggregator did 16 substitutions.
Reduced LP has 69 rows, 276 columns, and 490 nonzeros.
Presolve time = 0.00 sec. (0.65 ticks)
Initializing dual steep norms . . .

--- Fixed MIP status (1): optimal.
--- Cplex Time: 0.00sec (det. 0.91 ticks)


Proven optimal solution
MIP Solution:  47363318756434.195312    (130 iterations, 0 nodes)
Final Solve:   47363318756434.187500    (0 iterations)

Best possible: 47363318756434.195312
Absolute gap:            0.007812
Relative gap:            0.000000

--- Reading solution for model crop_profit_model
--- Executing after solve: elapsed 0:00:00.080
--- PAMP Model1.gms(466) 4 Mb
*** Status: Normal completion
--- Job PAMP Model1.gms Stop 11/26/23 17:58:14 elapsed 0:00:00.081
